(set-info :source |printed by MathSAT|)
(declare-fun call__DRAGON_.g05 () Bool)
(declare-fun call__DRAGON_.ite26 () Int)
(declare-fun call__DRAGON_.ite17 () Int)
(declare-fun call__DRAGON_.ite51 () Int)
(declare-fun call__DRAGON_.dirty () Int)
(declare-fun call__DRAGON_.ite28 () Int)
(declare-fun call__DRAGON_.ite49 () Int)
(declare-fun call_excludes12.excludes () Bool)
(declare-fun call__DRAGON_.ite5 () Int)
(declare-fun call__DRAGON_.ite29 () Int)
(declare-fun call__DRAGON_.shared () Int)
(declare-fun call_First.flby () Int)
(declare-fun call_First.First () Int)
(declare-fun call__DRAGON_.ite59 () Int)
(declare-fun param_e03 () Bool)
(declare-fun call__DRAGON_.ite2 () Int)
(declare-fun call__DRAGON_.g04 () Bool)
(declare-fun call__DRAGON_.invalid () Int)
(declare-fun call__DRAGON_.ite54 () Int)
(declare-fun call__DRAGON_.g08 () Bool)
(declare-fun call__DRAGON_.ite36 () Int)
(declare-fun call__DRAGON_.g02 () Bool)
(declare-fun env () Bool)
(declare-fun call__DRAGON_.ite24 () Int)
(declare-fun call__DRAGON_.ite34 () Int)
(declare-fun param_init_invalid () Int)
(declare-fun call__DRAGON_.shared_dirty () Int)
(declare-fun call__DRAGON_.ite3 () Int)
(declare-fun call__DRAGON_.ite4 () Int)
(declare-fun call__DRAGON_.exclusive () Int)
(declare-fun dirty () Int)
(declare-fun param_e12 () Bool)
(declare-fun call__DRAGON_.ite18 () Int)
(declare-fun call__DRAGON_.flby6 () Int)
(declare-fun call__DRAGON_.ite12 () Int)
(declare-fun call__DRAGON_.ite57 () Int)
(declare-fun call__DRAGON_.flby () Int)
(declare-fun call__DRAGON_.ite53 () Int)
(declare-fun shared () Int)
(declare-fun call__DRAGON_.ite11 () Int)
(declare-fun call__DRAGON_.ite45 () Int)
(declare-fun param_e05 () Bool)
(declare-fun call__DRAGON_.ite30 () Int)
(declare-fun call__DRAGON_.ite25 () Int)
(declare-fun call_Sofar.Sofar () Bool)
(declare-fun call__DRAGON_.ite32 () Int)
(declare-fun call__DRAGON_.ite46 () Int)
(declare-fun call__DRAGON_.ite22 () Int)
(declare-fun call__DRAGON_.ite40 () Int)
(declare-fun call__DRAGON_.ite38 () Int)
(declare-fun call__DRAGON_.ite16 () Int)
(declare-fun param_e08 () Bool)
(declare-fun erreur () Bool)
(declare-fun call__DRAGON_.ite61 () Int)
(declare-fun call__DRAGON_.ite20 () Int)
(declare-fun call__DRAGON_.ite37 () Int)
(declare-fun param_e11 () Bool)
(declare-fun call__DRAGON_.ite55 () Int)
(declare-fun call__DRAGON_.erreur () Bool)
(declare-fun param_e09 () Bool)
(declare-fun call__DRAGON_.ite7 () Int)
(declare-fun call__DRAGON_.ite19 () Int)
(declare-fun call__DRAGON_.ite41 () Int)
(declare-fun call__DRAGON_.ite () Bool)
(declare-fun call__DRAGON_.flby3 () Int)
(declare-fun call__DRAGON_.ite21 () Int)
(declare-fun call__DRAGON_.ite33 () Int)
(declare-fun param_e06 () Bool)
(declare-fun call__DRAGON_.ite44 () Int)
(declare-fun call__DRAGON_.ite58 () Int)
(declare-fun call__DRAGON_.ite23 () Int)
(declare-fun param_e07 () Bool)
(declare-fun call__DRAGON_.ite8 () Int)
(declare-fun call__DRAGON_.flby2 () Int)
(declare-fun call__DRAGON_.ite15 () Int)
(declare-fun invalid () Int)
(declare-fun call__DRAGON_.ite31 () Int)
(declare-fun call__DRAGON_.ite47 () Int)
(declare-fun shared_dirty () Int)
(declare-fun call__DRAGON_.ite60 () Int)
(declare-fun call__DRAGON_.ite6 () Int)
(declare-fun call_Sofar.flby () Bool)
(declare-fun param_e02 () Bool)
(declare-fun flby () Bool)
(declare-fun call__DRAGON_.ite42 () Int)
(declare-fun call__DRAGON_.ite48 () Int)
(declare-fun call__DRAGON_.ite27 () Int)
(declare-fun call__DRAGON_.ite13 () Int)
(declare-fun call__DRAGON_.ite52 () Int)
(declare-fun call__DRAGON_.ite35 () Int)
(declare-fun call__DRAGON_.flby4 () Int)
(declare-fun call__DRAGON_.ite56 () Int)
(declare-fun exclusive () Int)
(declare-fun call__DRAGON_.mem_init () Int)
(declare-fun call__DRAGON_.ite50 () Int)
(declare-fun call__DRAGON_.ite9 () Int)
(declare-fun call__DRAGON_.g06 () Bool)
(declare-fun call__DRAGON_.ite43 () Int)
(declare-fun call__DRAGON_.ite39 () Int)
(declare-fun call__DRAGON_.flby5 () Int)
(declare-fun call__DRAGON_.ite10 () Int)
(declare-fun _OK_ () Bool)
(declare-fun param_e01 () Bool)
(declare-fun call__DRAGON_.ite14 () Int)
(declare-fun param_e10 () Bool)
(declare-fun param_e04 () Bool)
(define-fun .def_1826 () Bool (= call_First.flby call_First.First))
(define-fun .def_1824 () Bool (= call_Sofar.flby call_Sofar.Sofar))
(define-fun .def_1633 () Bool (not param_e02))
(define-fun .def_1614 () Bool (not param_e01))
(define-fun .def_1722 () Bool (and .def_1614 .def_1633))
(define-fun .def_1674 () Bool (not param_e03))
(define-fun .def_1723 () Bool (and .def_1674 .def_1722))
(define-fun .def_1690 () Bool (not param_e04))
(define-fun .def_1724 () Bool (and .def_1690 .def_1723))
(define-fun .def_1462 () Bool (not param_e05))
(define-fun .def_1725 () Bool (and .def_1462 .def_1724))
(define-fun .def_1444 () Bool (not param_e06))
(define-fun .def_1726 () Bool (and .def_1444 .def_1725))
(define-fun .def_1479 () Bool (not param_e07))
(define-fun .def_1727 () Bool (and .def_1479 .def_1726))
(define-fun .def_1498 () Bool (not param_e08))
(define-fun .def_1728 () Bool (and .def_1498 .def_1727))
(define-fun .def_1335 () Bool (not param_e09))
(define-fun .def_1729 () Bool (and .def_1335 .def_1728))
(define-fun .def_1343 () Bool (not param_e10))
(define-fun .def_1730 () Bool (and .def_1343 .def_1729))
(define-fun .def_1350 () Bool (not param_e11))
(define-fun .def_1731 () Bool (and .def_1350 .def_1730))
(define-fun .def_1357 () Bool (not param_e12))
(define-fun .def_1809 () Bool (and .def_1357 .def_1731))
(define-fun .def_1798 () Bool (and param_e01 .def_1633))
(define-fun .def_1799 () Bool (and .def_1674 .def_1798))
(define-fun .def_1800 () Bool (and .def_1690 .def_1799))
(define-fun .def_1801 () Bool (and .def_1462 .def_1800))
(define-fun .def_1802 () Bool (and .def_1444 .def_1801))
(define-fun .def_1803 () Bool (and .def_1479 .def_1802))
(define-fun .def_1804 () Bool (and .def_1498 .def_1803))
(define-fun .def_1805 () Bool (and .def_1335 .def_1804))
(define-fun .def_1806 () Bool (and .def_1343 .def_1805))
(define-fun .def_1807 () Bool (and .def_1350 .def_1806))
(define-fun .def_1808 () Bool (and .def_1357 .def_1807))
(define-fun .def_1810 () Bool (or .def_1808 .def_1809))
(define-fun .def_1787 () Bool (and .def_1614 param_e02))
(define-fun .def_1788 () Bool (and .def_1674 .def_1787))
(define-fun .def_1789 () Bool (and .def_1690 .def_1788))
(define-fun .def_1790 () Bool (and .def_1462 .def_1789))
(define-fun .def_1791 () Bool (and .def_1444 .def_1790))
(define-fun .def_1792 () Bool (and .def_1479 .def_1791))
(define-fun .def_1793 () Bool (and .def_1498 .def_1792))
(define-fun .def_1794 () Bool (and .def_1335 .def_1793))
(define-fun .def_1795 () Bool (and .def_1343 .def_1794))
(define-fun .def_1796 () Bool (and .def_1350 .def_1795))
(define-fun .def_1797 () Bool (and .def_1357 .def_1796))
(define-fun .def_1811 () Bool (or .def_1797 .def_1810))
(define-fun .def_1777 () Bool (and param_e03 .def_1722))
(define-fun .def_1778 () Bool (and .def_1690 .def_1777))
(define-fun .def_1779 () Bool (and .def_1462 .def_1778))
(define-fun .def_1780 () Bool (and .def_1444 .def_1779))
(define-fun .def_1781 () Bool (and .def_1479 .def_1780))
(define-fun .def_1782 () Bool (and .def_1498 .def_1781))
(define-fun .def_1783 () Bool (and .def_1335 .def_1782))
(define-fun .def_1784 () Bool (and .def_1343 .def_1783))
(define-fun .def_1785 () Bool (and .def_1350 .def_1784))
(define-fun .def_1786 () Bool (and .def_1357 .def_1785))
(define-fun .def_1812 () Bool (or .def_1786 .def_1811))
(define-fun .def_1768 () Bool (and param_e04 .def_1723))
(define-fun .def_1769 () Bool (and .def_1462 .def_1768))
(define-fun .def_1770 () Bool (and .def_1444 .def_1769))
(define-fun .def_1771 () Bool (and .def_1479 .def_1770))
(define-fun .def_1772 () Bool (and .def_1498 .def_1771))
(define-fun .def_1773 () Bool (and .def_1335 .def_1772))
(define-fun .def_1774 () Bool (and .def_1343 .def_1773))
(define-fun .def_1775 () Bool (and .def_1350 .def_1774))
(define-fun .def_1776 () Bool (and .def_1357 .def_1775))
(define-fun .def_1813 () Bool (or .def_1776 .def_1812))
(define-fun .def_1760 () Bool (and param_e05 .def_1724))
(define-fun .def_1761 () Bool (and .def_1444 .def_1760))
(define-fun .def_1762 () Bool (and .def_1479 .def_1761))
(define-fun .def_1763 () Bool (and .def_1498 .def_1762))
(define-fun .def_1764 () Bool (and .def_1335 .def_1763))
(define-fun .def_1765 () Bool (and .def_1343 .def_1764))
(define-fun .def_1766 () Bool (and .def_1350 .def_1765))
(define-fun .def_1767 () Bool (and .def_1357 .def_1766))
(define-fun .def_1814 () Bool (or .def_1767 .def_1813))
(define-fun .def_1753 () Bool (and param_e06 .def_1725))
(define-fun .def_1754 () Bool (and .def_1479 .def_1753))
(define-fun .def_1755 () Bool (and .def_1498 .def_1754))
(define-fun .def_1756 () Bool (and .def_1335 .def_1755))
(define-fun .def_1757 () Bool (and .def_1343 .def_1756))
(define-fun .def_1758 () Bool (and .def_1350 .def_1757))
(define-fun .def_1759 () Bool (and .def_1357 .def_1758))
(define-fun .def_1815 () Bool (or .def_1759 .def_1814))
(define-fun .def_1747 () Bool (and param_e07 .def_1726))
(define-fun .def_1748 () Bool (and .def_1498 .def_1747))
(define-fun .def_1749 () Bool (and .def_1335 .def_1748))
(define-fun .def_1750 () Bool (and .def_1343 .def_1749))
(define-fun .def_1751 () Bool (and .def_1350 .def_1750))
(define-fun .def_1752 () Bool (and .def_1357 .def_1751))
(define-fun .def_1816 () Bool (or .def_1752 .def_1815))
(define-fun .def_1742 () Bool (and param_e08 .def_1727))
(define-fun .def_1743 () Bool (and .def_1335 .def_1742))
(define-fun .def_1744 () Bool (and .def_1343 .def_1743))
(define-fun .def_1745 () Bool (and .def_1350 .def_1744))
(define-fun .def_1746 () Bool (and .def_1357 .def_1745))
(define-fun .def_1817 () Bool (or .def_1746 .def_1816))
(define-fun .def_1738 () Bool (and param_e09 .def_1728))
(define-fun .def_1739 () Bool (and .def_1343 .def_1738))
(define-fun .def_1740 () Bool (and .def_1350 .def_1739))
(define-fun .def_1741 () Bool (and .def_1357 .def_1740))
(define-fun .def_1818 () Bool (or .def_1741 .def_1817))
(define-fun .def_1735 () Bool (and param_e10 .def_1729))
(define-fun .def_1736 () Bool (and .def_1350 .def_1735))
(define-fun .def_1737 () Bool (and .def_1357 .def_1736))
(define-fun .def_1819 () Bool (or .def_1737 .def_1818))
(define-fun .def_1733 () Bool (and param_e11 .def_1730))
(define-fun .def_1734 () Bool (and .def_1357 .def_1733))
(define-fun .def_1820 () Bool (or .def_1734 .def_1819))
(define-fun .def_1732 () Bool (and param_e12 .def_1731))
(define-fun .def_1821 () Bool (or .def_1732 .def_1820))
(define-fun .def_1822 () Bool (= call_excludes12.excludes .def_1821))
(define-fun .def_1720 () Bool (= call__DRAGON_.mem_init call__DRAGON_.flby))
(define-fun .def_1718 () Bool (= call__DRAGON_.erreur call__DRAGON_.ite))
(define-fun .def_1716 () Bool (= call__DRAGON_.flby6 call__DRAGON_.invalid))
(define-fun .def_1714 () Bool (= call__DRAGON_.flby5 call__DRAGON_.dirty))
(define-fun .def_1712 () Bool (= call__DRAGON_.flby4 call__DRAGON_.shared_dirty))
(define-fun .def_1710 () Bool (= call__DRAGON_.flby3 call__DRAGON_.shared))
(define-fun .def_1707 () Bool (= call__DRAGON_.flby2 call__DRAGON_.exclusive))
(define-fun .def_1702 () Bool (<= 2 call__DRAGON_.exclusive))
(define-fun .def_1704 () Bool (not .def_1702))
(define-fun .def_1705 () Bool (or call__DRAGON_.ite .def_1704))
(define-fun .def_1701 () Bool (not call__DRAGON_.ite))
(define-fun .def_1703 () Bool (or .def_1701 .def_1702))
(define-fun .def_1706 () Bool (and .def_1703 .def_1705))
(define-fun .def_1708 () Bool (and .def_1706 .def_1707))
(define-fun .def_1696 () Bool (= call__DRAGON_.ite29 call__DRAGON_.ite30))
(define-fun .def_1697 () Bool (or param_e04 .def_1696))
(define-fun .def_1693 () Bool (= call__DRAGON_.ite23 call__DRAGON_.ite30))
(define-fun .def_1694 () Bool (or .def_1690 .def_1693))
(define-fun .def_1689 () Bool (= call__DRAGON_.ite43 call__DRAGON_.ite34))
(define-fun .def_1691 () Bool (or .def_1689 .def_1690))
(define-fun .def_1685 () Bool (= call__DRAGON_.ite42 call__DRAGON_.ite43))
(define-fun .def_1687 () Bool (or .def_1685 param_e04))
(define-fun .def_1692 () Bool (and .def_1687 .def_1691))
(define-fun .def_1695 () Bool (and .def_1692 .def_1694))
(define-fun .def_1698 () Bool (and .def_1695 .def_1697))
(define-fun .def_1681 () Bool (= call__DRAGON_.ite8 call__DRAGON_.ite9))
(define-fun .def_1682 () Bool (or param_e03 .def_1681))
(define-fun .def_1678 () Bool (= call__DRAGON_.ite9 call__DRAGON_.ite4))
(define-fun .def_1679 () Bool (or .def_1674 .def_1678))
(define-fun .def_1673 () Bool (= call__DRAGON_.ite44 call__DRAGON_.ite33))
(define-fun .def_1675 () Bool (or .def_1673 .def_1674))
(define-fun .def_1669 () Bool (= call__DRAGON_.ite44 call__DRAGON_.ite43))
(define-fun .def_1671 () Bool (or .def_1669 param_e03))
(define-fun .def_1676 () Bool (and .def_1671 .def_1675))
(define-fun .def_1680 () Bool (and .def_1676 .def_1679))
(define-fun .def_1683 () Bool (and .def_1680 .def_1682))
(define-fun .def_1664 () Bool (= call__DRAGON_.ite31 call__DRAGON_.ite30))
(define-fun .def_1665 () Bool (or param_e02 .def_1664))
(define-fun .def_1660 () Bool (= call__DRAGON_.ite22 call__DRAGON_.ite31))
(define-fun .def_1661 () Bool (or .def_1633 .def_1660))
(define-fun .def_1655 () Bool (= call__DRAGON_.ite20 call__DRAGON_.ite21))
(define-fun .def_1656 () Bool (or param_e02 .def_1655))
(define-fun .def_1652 () Bool (= call__DRAGON_.ite12 call__DRAGON_.ite21))
(define-fun .def_1653 () Bool (or .def_1633 .def_1652))
(define-fun .def_1647 () Bool (= call__DRAGON_.ite10 call__DRAGON_.ite9))
(define-fun .def_1648 () Bool (or param_e02 .def_1647))
(define-fun .def_1643 () Bool (= call__DRAGON_.ite3 call__DRAGON_.ite10))
(define-fun .def_1644 () Bool (or .def_1633 .def_1643))
(define-fun .def_1640 () Bool (= call__DRAGON_.ite59 call__DRAGON_.ite60))
(define-fun .def_1641 () Bool (or param_e02 .def_1640))
(define-fun .def_1637 () Bool (= call__DRAGON_.ite60 call__DRAGON_.ite47))
(define-fun .def_1638 () Bool (or .def_1633 .def_1637))
(define-fun .def_1632 () Bool (= call__DRAGON_.ite32 call__DRAGON_.ite45))
(define-fun .def_1634 () Bool (or .def_1632 .def_1633))
(define-fun .def_1629 () Bool (= call__DRAGON_.ite45 call__DRAGON_.ite44))
(define-fun .def_1631 () Bool (or .def_1629 param_e02))
(define-fun .def_1635 () Bool (and .def_1631 .def_1634))
(define-fun .def_1639 () Bool (and .def_1635 .def_1638))
(define-fun .def_1642 () Bool (and .def_1639 .def_1641))
(define-fun .def_1645 () Bool (and .def_1642 .def_1644))
(define-fun .def_1649 () Bool (and .def_1645 .def_1648))
(define-fun .def_1654 () Bool (and .def_1649 .def_1653))
(define-fun .def_1657 () Bool (and .def_1654 .def_1656))
(define-fun .def_1662 () Bool (and .def_1657 .def_1661))
(define-fun .def_1666 () Bool (and .def_1662 .def_1665))
(define-fun .def_1623 () Bool (= call__DRAGON_.ite11 call__DRAGON_.ite10))
(define-fun .def_1624 () Bool (or param_e01 .def_1623))
(define-fun .def_1619 () Bool (= call__DRAGON_.ite2 call__DRAGON_.ite11))
(define-fun .def_1620 () Bool (or .def_1614 .def_1619))
(define-fun .def_1613 () Bool (= call__DRAGON_.ite61 call__DRAGON_.ite46))
(define-fun .def_1615 () Bool (or .def_1613 .def_1614))
(define-fun .def_1609 () Bool (= call__DRAGON_.ite61 call__DRAGON_.ite60))
(define-fun .def_1611 () Bool (or .def_1609 param_e01))
(define-fun .def_1616 () Bool (and .def_1611 .def_1615))
(define-fun .def_1621 () Bool (and .def_1616 .def_1620))
(define-fun .def_1625 () Bool (and .def_1621 .def_1624))
(define-fun .def_1603 () Bool (= call__DRAGON_.ite55 call__DRAGON_.ite52))
(define-fun .def_1604 () Bool (or .def_1350 .def_1603))
(define-fun .def_1600 () Bool (= call__DRAGON_.ite54 call__DRAGON_.ite55))
(define-fun .def_1601 () Bool (or param_e11 .def_1600))
(define-fun .def_1605 () Bool (and .def_1601 .def_1604))
(define-fun .def_1596 () Bool (= call__DRAGON_.ite56 call__DRAGON_.ite51))
(define-fun .def_1597 () Bool (or .def_1343 .def_1596))
(define-fun .def_1593 () Bool (= call__DRAGON_.ite56 call__DRAGON_.ite55))
(define-fun .def_1594 () Bool (or param_e10 .def_1593))
(define-fun .def_1598 () Bool (and .def_1594 .def_1597))
(define-fun .def_1588 () Bool (= call__DRAGON_.ite57 call__DRAGON_.ite50))
(define-fun .def_1589 () Bool (or .def_1335 .def_1588))
(define-fun .def_1585 () Bool (= call__DRAGON_.ite57 call__DRAGON_.ite56))
(define-fun .def_1586 () Bool (or param_e09 .def_1585))
(define-fun .def_1590 () Bool (and .def_1586 .def_1589))
(define-fun .def_1582 () Bool (= env call_Sofar.Sofar))
(define-fun .def_1579 () Bool (= erreur call__DRAGON_.erreur))
(define-fun .def_1576 () Bool (= invalid call__DRAGON_.invalid))
(define-fun .def_1573 () Bool (= dirty call__DRAGON_.dirty))
(define-fun .def_1570 () Bool (= shared_dirty call__DRAGON_.shared_dirty))
(define-fun .def_1567 () Bool (= shared call__DRAGON_.shared))
(define-fun .def_1564 () Bool (= exclusive call__DRAGON_.exclusive))
(define-fun .def_1558 () Bool (<= 0 exclusive))
(define-fun .def_1550 () Int (* (- 1) call_First.First))
(define-fun .def_1551 () Int (+ invalid .def_1550))
(define-fun .def_1552 () Int (+ dirty .def_1551))
(define-fun .def_1553 () Int (+ shared_dirty .def_1552))
(define-fun .def_1554 () Int (+ shared .def_1553))
(define-fun .def_1555 () Int (+ exclusive .def_1554))
(define-fun .def_1556 () Bool (= .def_1555 0))
(define-fun .def_1532 () Bool (not erreur))
(define-fun .def_1533 () Bool (and flby .def_1532))
(define-fun .def_1557 () Bool (and .def_1533 .def_1556))
(define-fun .def_1559 () Bool (and .def_1557 .def_1558))
(define-fun .def_1530 () Bool (not env))
(define-fun .def_1560 () Bool (or .def_1530 .def_1559))
(define-fun .def_1561 () Bool (= _OK_ .def_1560))
(define-fun .def_1524 () Bool (= call__DRAGON_.ite39 call__DRAGON_.ite40))
(define-fun .def_1525 () Bool (or param_e08 .def_1524))
(define-fun .def_1521 () Bool (= call__DRAGON_.ite37 call__DRAGON_.ite40))
(define-fun .def_1522 () Bool (or .def_1498 .def_1521))
(define-fun .def_1518 () Bool (= call__DRAGON_.ite27 call__DRAGON_.ite28))
(define-fun .def_1519 () Bool (or param_e08 .def_1518))
(define-fun .def_1515 () Bool (= call__DRAGON_.ite25 call__DRAGON_.ite28))
(define-fun .def_1516 () Bool (or .def_1498 .def_1515))
(define-fun .def_1512 () Bool (= call__DRAGON_.ite17 call__DRAGON_.ite18))
(define-fun .def_1513 () Bool (or param_e08 .def_1512))
(define-fun .def_1509 () Bool (= call__DRAGON_.ite18 call__DRAGON_.ite15))
(define-fun .def_1510 () Bool (or .def_1498 .def_1509))
(define-fun .def_1505 () Bool (= call__DRAGON_.ite7 call__DRAGON_.ite8))
(define-fun .def_1506 () Bool (or param_e08 .def_1505))
(define-fun .def_1502 () Bool (= call__DRAGON_.ite5 call__DRAGON_.ite8))
(define-fun .def_1503 () Bool (or .def_1498 .def_1502))
(define-fun .def_1497 () Bool (= call__DRAGON_.ite58 call__DRAGON_.ite49))
(define-fun .def_1499 () Bool (or .def_1497 .def_1498))
(define-fun .def_1493 () Bool (= call__DRAGON_.ite58 call__DRAGON_.ite57))
(define-fun .def_1495 () Bool (or .def_1493 param_e08))
(define-fun .def_1500 () Bool (and .def_1495 .def_1499))
(define-fun .def_1504 () Bool (and .def_1500 .def_1503))
(define-fun .def_1507 () Bool (and .def_1504 .def_1506))
(define-fun .def_1511 () Bool (and .def_1507 .def_1510))
(define-fun .def_1514 () Bool (and .def_1511 .def_1513))
(define-fun .def_1517 () Bool (and .def_1514 .def_1516))
(define-fun .def_1520 () Bool (and .def_1517 .def_1519))
(define-fun .def_1523 () Bool (and .def_1520 .def_1522))
(define-fun .def_1526 () Bool (and .def_1523 .def_1525))
(define-fun .def_1488 () Bool (= call__DRAGON_.ite59 call__DRAGON_.ite58))
(define-fun .def_1489 () Bool (or param_e07 .def_1488))
(define-fun .def_1484 () Bool (= call__DRAGON_.ite48 call__DRAGON_.ite59))
(define-fun .def_1485 () Bool (or .def_1479 .def_1484))
(define-fun .def_1478 () Bool (= call__DRAGON_.ite41 call__DRAGON_.ite36))
(define-fun .def_1480 () Bool (or .def_1478 .def_1479))
(define-fun .def_1474 () Bool (= call__DRAGON_.ite41 call__DRAGON_.ite40))
(define-fun .def_1476 () Bool (or .def_1474 param_e07))
(define-fun .def_1481 () Bool (and .def_1476 .def_1480))
(define-fun .def_1486 () Bool (and .def_1481 .def_1485))
(define-fun .def_1490 () Bool (and .def_1486 .def_1489))
(define-fun .def_1469 () Bool (= call__DRAGON_.ite19 call__DRAGON_.ite20))
(define-fun .def_1470 () Bool (or param_e05 .def_1469))
(define-fun .def_1466 () Bool (= call__DRAGON_.ite13 call__DRAGON_.ite20))
(define-fun .def_1467 () Bool (or .def_1462 .def_1466))
(define-fun .def_1461 () Bool (= call__DRAGON_.ite42 call__DRAGON_.ite35))
(define-fun .def_1463 () Bool (or .def_1461 .def_1462))
(define-fun .def_1457 () Bool (= call__DRAGON_.ite41 call__DRAGON_.ite42))
(define-fun .def_1459 () Bool (or .def_1457 param_e05))
(define-fun .def_1464 () Bool (and .def_1459 .def_1463))
(define-fun .def_1468 () Bool (and .def_1464 .def_1467))
(define-fun .def_1471 () Bool (and .def_1468 .def_1470))
(define-fun .def_1452 () Bool (= call__DRAGON_.ite29 call__DRAGON_.ite28))
(define-fun .def_1453 () Bool (or param_e06 .def_1452))
(define-fun .def_1448 () Bool (= call__DRAGON_.ite24 call__DRAGON_.ite29))
(define-fun .def_1449 () Bool (or .def_1444 .def_1448))
(define-fun .def_1443 () Bool (= call__DRAGON_.ite19 call__DRAGON_.ite14))
(define-fun .def_1445 () Bool (or .def_1443 .def_1444))
(define-fun .def_1439 () Bool (= call__DRAGON_.ite19 call__DRAGON_.ite18))
(define-fun .def_1441 () Bool (or .def_1439 param_e06))
(define-fun .def_1446 () Bool (and .def_1441 .def_1445))
(define-fun .def_1450 () Bool (and .def_1446 .def_1449))
(define-fun .def_1454 () Bool (and .def_1450 .def_1453))
(define-fun .def_1472 () Bool (and .def_1454 .def_1471))
(define-fun .def_1491 () Bool (and .def_1472 .def_1490))
(define-fun .def_1527 () Bool (and .def_1491 .def_1526))
(define-fun .def_1562 () Bool (and .def_1527 .def_1561))
(define-fun .def_1565 () Bool (and .def_1562 .def_1564))
(define-fun .def_1568 () Bool (and .def_1565 .def_1567))
(define-fun .def_1571 () Bool (and .def_1568 .def_1570))
(define-fun .def_1574 () Bool (and .def_1571 .def_1573))
(define-fun .def_1577 () Bool (and .def_1574 .def_1576))
(define-fun .def_1580 () Bool (and .def_1577 .def_1579))
(define-fun .def_1583 () Bool (and .def_1580 .def_1582))
(define-fun .def_1591 () Bool (and .def_1583 .def_1590))
(define-fun .def_1599 () Bool (and .def_1591 .def_1598))
(define-fun .def_1606 () Bool (and .def_1599 .def_1605))
(define-fun .def_1626 () Bool (and .def_1606 .def_1625))
(define-fun .def_1667 () Bool (and .def_1626 .def_1666))
(define-fun .def_1684 () Bool (and .def_1667 .def_1683))
(define-fun .def_1699 () Bool (and .def_1684 .def_1698))
(define-fun .def_1709 () Bool (and .def_1699 .def_1708))
(define-fun .def_1711 () Bool (and .def_1709 .def_1710))
(define-fun .def_1713 () Bool (and .def_1711 .def_1712))
(define-fun .def_1715 () Bool (and .def_1713 .def_1714))
(define-fun .def_1717 () Bool (and .def_1715 .def_1716))
(define-fun .def_1719 () Bool (and .def_1717 .def_1718))
(define-fun .def_1721 () Bool (and .def_1719 .def_1720))
(define-fun .def_1823 () Bool (and .def_1721 .def_1822))
(define-fun .def_1825 () Bool (and .def_1823 .def_1824))
(define-fun .def_1827 () Bool (and .def_1825 .def_1826))
(define-fun .def_1435 () Bool (= param_init_invalid call_First.flby))
(define-fun .def_1427 () Bool (<= param_init_invalid 0))
(define-fun .def_1428 () Bool (not .def_1427))
(define-fun .def_1430 () Bool (and .def_1428 call_excludes12.excludes))
(define-fun .def_1432 () Bool (= .def_1430 call_Sofar.flby))
(define-fun .def_1425 () Bool (= call__DRAGON_.flby4 0))
(define-fun .def_1422 () Bool (= call__DRAGON_.flby3 0))
(define-fun .def_1419 () Bool (= call__DRAGON_.flby2 0))
(define-fun .def_1416 () Bool (= param_init_invalid call__DRAGON_.flby))
(define-fun .def_1410 () Bool (= call__DRAGON_.ite37 0))
(define-fun .def_1403 () Bool (not call__DRAGON_.g08))
(define-fun .def_1411 () Bool (or .def_1403 .def_1410))
(define-fun .def_1406 () Bool (= call__DRAGON_.ite5 0))
(define-fun .def_1407 () Bool (or .def_1403 .def_1406))
(define-fun .def_1401 () Bool (= call__DRAGON_.ite25 1))
(define-fun .def_1404 () Bool (or .def_1401 .def_1403))
(define-fun .def_1408 () Bool (and .def_1404 .def_1407))
(define-fun .def_1412 () Bool (and .def_1408 .def_1411))
(define-fun .def_1397 () Bool (= call__DRAGON_.ite24 1))
(define-fun .def_1395 () Bool (not call__DRAGON_.g06))
(define-fun .def_1398 () Bool (or .def_1395 .def_1397))
(define-fun .def_1391 () Bool (= call__DRAGON_.ite13 0))
(define-fun .def_1389 () Bool (not call__DRAGON_.g05))
(define-fun .def_1392 () Bool (or .def_1389 .def_1391))
(define-fun .def_1385 () Bool (= call__DRAGON_.ite23 0))
(define-fun .def_1383 () Bool (not call__DRAGON_.g04))
(define-fun .def_1386 () Bool (or .def_1383 .def_1385))
(define-fun .def_1378 () Bool (= call__DRAGON_.ite3 0))
(define-fun .def_1375 () Bool (not call__DRAGON_.g02))
(define-fun .def_1379 () Bool (or .def_1375 .def_1378))
(define-fun .def_1373 () Bool (= call__DRAGON_.ite32 0))
(define-fun .def_1376 () Bool (or .def_1373 .def_1375))
(define-fun .def_1380 () Bool (and .def_1376 .def_1379))
(define-fun .def_1370 () Bool (= call__DRAGON_.flby6 call__DRAGON_.mem_init))
(define-fun .def_1366 () Bool (= call__DRAGON_.flby5 0))
(define-fun .def_1361 () Bool (= call__DRAGON_.ite53 call__DRAGON_.ite54))
(define-fun .def_1362 () Bool (or .def_1357 .def_1361))
(define-fun .def_1355 () Bool (= call__DRAGON_.ite6 call__DRAGON_.ite7))
(define-fun .def_1358 () Bool (or .def_1355 .def_1357))
(define-fun .def_1363 () Bool (and .def_1358 .def_1362))
(define-fun .def_1348 () Bool (= call__DRAGON_.ite26 call__DRAGON_.ite27))
(define-fun .def_1351 () Bool (or .def_1348 .def_1350))
(define-fun .def_1341 () Bool (= call__DRAGON_.ite16 call__DRAGON_.ite17))
(define-fun .def_1344 () Bool (or .def_1341 .def_1343))
(define-fun .def_1333 () Bool (= call__DRAGON_.ite38 call__DRAGON_.ite39))
(define-fun .def_1336 () Bool (or .def_1333 .def_1335))
(define-fun .def_1338 () Bool (and .def_1336 flby))
(define-fun .def_1345 () Bool (and .def_1338 .def_1344))
(define-fun .def_1352 () Bool (and .def_1345 .def_1351))
(define-fun .def_1364 () Bool (and .def_1352 .def_1363))
(define-fun .def_1367 () Bool (and .def_1364 .def_1366))
(define-fun .def_1371 () Bool (and .def_1367 .def_1370))
(define-fun .def_1381 () Bool (and .def_1371 .def_1380))
(define-fun .def_1387 () Bool (and .def_1381 .def_1386))
(define-fun .def_1393 () Bool (and .def_1387 .def_1392))
(define-fun .def_1399 () Bool (and .def_1393 .def_1398))
(define-fun .def_1413 () Bool (and .def_1399 .def_1412))
(define-fun .def_1417 () Bool (and .def_1413 .def_1416))
(define-fun .def_1420 () Bool (and .def_1417 .def_1419))
(define-fun .def_1423 () Bool (and .def_1420 .def_1422))
(define-fun .def_1426 () Bool (and .def_1423 .def_1425))
(define-fun .def_1433 () Bool (and .def_1426 .def_1432))
(define-fun .def_1436 () Bool (and .def_1433 .def_1435))
(define-fun .def_1828 () Bool (and .def_1436 .def_1827))
(assert .def_1828)
